c random assignment satisfied 182/430 clauses
o 248
c flipped 0/100 variables (k=0)
c solution improved by 17 clauses
o 231
c flipped 0/100 variables (k=0)
c solution improved by 8 clauses
o 223
c flipped 0/100 variables (k=0)
c solution improved by 1 clause
o 222
c flipped 0/100 variables (k=0)
c solution improved by 3 clauses
o 219
c flipped 0/100 variables (k=0)
c solution improved by 1 clause
o 218
c flipped 0/100 variables (k=0)
c solution improved by 22 clauses
o 196
c flipped 0/100 variables (k=0)
c solution improved by 16 clauses
o 180
c flipped 0/100 variables (k=0)
c solution improved by 1 clause
o 179
c flipped 0/100 variables (k=0)
c solution improved by 3 clauses
o 176
c flipped 0/100 variables (k=0)
c solution improved by 8 clauses
o 168
c flipped 0/100 variables (k=0)
c solution improved by 8 clauses
o 160
c flipped 0/100 variables (k=0)
c solution improved by 4 clauses
o 156
c flipped 0/100 variables (k=0)
c solution improved by 1 clause
o 155
c flipped 0/100 variables (k=0)
c solution improved by 3 clauses
o 152
c flipped 0/100 variables (k=0)
c solution improved by 16 clauses
o 136
c flipped 0/100 variables (k=0)
c solution improved by 2 clauses
o 134
c flipped 0/100 variables (k=0)
c solution improved by 4 clauses
o 130
c flipped 0/100 variables (k=0)
c solution improved by 9 clauses
o 121
c flipped 0/100 variables (k=0)
c solution improved by 18 clauses
o 103
c flipped 0/100 variables (k=0)
c solution improved by 17 clauses
o 86
c flipped 0/100 variables (k=0)
c solution improved by 7 clauses
o 79
c flipped 0/100 variables (k=0)
c solution improved by 1 clause
o 78
c flipped 0/100 variables (k=0)
c solution improved by 1 clause
o 77
c flipped 0/100 variables (k=0)
c solution improved by 1 clause
o 76
c flipped 0/100 variables (k=0)
c solution improved by 4 clauses
o 72
c flipped 0/100 variables (k=0)
c solution improved by 9 clauses
o 63
c flipped 0/100 variables (k=0)
c solution improved by 9 clauses
o 54
c flipped 0/100 variables (k=0)
c solution improved by 1 clause
o 53
c flipped 0/100 variables (k=0)
c solution improved by 3 clauses
o 50
c flipped 0/100 variables (k=0)
c solution improved by 2 clauses
o 48
c flipped 0/100 variables (k=0)
c solution improved by 1 clause
o 47
v 0100000011010100110011101111001110000010101100001100100110001011100110010100101010001100011111001111
c stuck at 383/430 clauses with k=0
s UNKNOWN
